5,1,1,2,11,2,8,1,6,4,4,1,10,2,10,3,4,3,3,3,13,3,15,2,3,4,14,2,14,3,8,4,9,6,9,7,14,5,6,8,12,4,1,6,6,9,12,6,13,7,15,7;11,1,5,2,10,1,9,3,14,1,9,4,11,3,1,3,3,2,6,5,2,2,10,5,7,3,13,4,13,5,13,6,3,5,7,4,6,7,4,5,14,4,9,8,14,6,4,6,15,6,8,8,3,7,5,6,2,5;1,1,9,1,7,1,6,3,2,1,8,2,15,1,13,2,10,4,5,4,5,5,10,6,12,2,1,4,15,3,15,4,8,5,11,4,10,7,7,5,8,7,12,5,11,6,9,9,11,7;6,1,6,2,9,2,5,3,13,1,3,1,4,2,12,1,9,5,7,2,6,6,8,3,2,3,2,4,4,4,12,3,15,5,1,5,3,6,8,6,10,8,10,9,11,5,4,7,14,7,3,8;
